NAME : kroA100.tsp
TYPE : TOUR
DIMENSION : 100
TOUR_LENGTH : 22891.844985540414
TOUR_SECTION
1
63
6
49
90
10
84
36
99
38
24
18
79
53
88
16
22
94
70
66
65
4
26
97
75
19
56
80
31
89
42
8
92
28
93
67
58
61
25
81
69
64
40
54
2
44
50
73
68
85
39
30
96
78
52
5
37
33
76
13
95
82
48
100
71
41
14
3
43
46
29
34
83
55
12
7
9
57
87
51
20
86
27
35
62
77
60
23
98
91
45
32
11
15
17
59
74
21
72
47
-1
